(set-option :produce-models true)
(set-logic QF_LRA)
(set-info :notes | Strip-packing problem.|)
(declare-fun x0 () Real)
(declare-fun y0 () Real)
(declare-fun x1 () Real)
(declare-fun y1 () Real)
(declare-fun x2 () Real)
(declare-fun y2 () Real)
(declare-fun x3 () Real)
(declare-fun y3 () Real)
(declare-fun x4 () Real)
(declare-fun y4 () Real)
(declare-fun x5 () Real)
(declare-fun y5 () Real)
(declare-fun x6 () Real)
(declare-fun y6 () Real)
(declare-fun x7 () Real)
(declare-fun y7 () Real)
(declare-fun x8 () Real)
(declare-fun y8 () Real)
(declare-fun z () Real)
(declare-fun c () Real)
(assert (and (= c z) (and (>= x0 0) 
(and (>= y0 0) 
(and (>= x1 0) 
(and (>= y1 0) 
(and (>= x2 0) 
(and (>= y2 0) 
(and (>= x3 0) 
(and (>= y3 0) 
(and (>= x4 0) 
(and (>= y4 0) 
(and (>= x5 0) 
(and (>= y5 0) 
(and (>= x6 0) 
(and (>= y6 0) 
(and (>= x7 0) 
(and (>= y7 0) 
(and (>= x8 0) 
(and (>= y8 0) 
(and (>= z 0) 
(and (>= c 0) 
(and (<= (+ x0 0.0447637922) z) 
(and (<= 0.9887240373 y0) 
(and (<= y0 1.5) 
(and (<= x0 (- 1.4715890915 0.0447637922)) 
(and (>= x0 0) 
(and (<= (+ x1 0.2496321269) z) 
(and (<= 0.6357093527 y1) 
(and (<= y1 1.5) 
(and (<= x1 (- 1.4715890915 0.2496321269)) 
(and (>= x1 0) 
(and (<= (+ x2 0.725887778) z) 
(and (<= 0.6333781868 y2) 
(and (<= y2 1.5) 
(and (<= x2 (- 1.4715890915 0.725887778)) 
(and (>= x2 0) 
(and (<= (+ x3 0.282655493) z) 
(and (<= 0.4147033399 y3) 
(and (<= y3 1.5) 
(and (<= x3 (- 1.4715890915 0.282655493)) 
(and (>= x3 0) 
(and (<= (+ x4 0.433259971) z) 
(and (<= 0.252610903 y4) 
(and (<= y4 1.5) 
(and (<= x4 (- 1.4715890915 0.433259971)) 
(and (>= x4 0) 
(and (<= (+ x5 0.4513053944) z) 
(and (<= 0.2494590496 y5) 
(and (<= y5 1.5) 
(and (<= x5 (- 1.4715890915 0.4513053944)) 
(and (>= x5 0) 
(and (<= (+ x6 0.2526932706) z) 
(and (<= 0.134954876 y6) 
(and (<= y6 1.5) 
(and (<= x6 (- 1.4715890915 0.2526932706)) 
(and (>= x6 0) 
(and (<= (+ x7 0.2451016839) z) 
(and (<= 0.0708005443 y7) 
(and (<= y7 1.5) 
(and (<= x7 (- 1.4715890915 0.2451016839)) 
(and (>= x7 0) 
(and (<= (+ x8 0.7140932051) z) 
(and (<= 0.0344275366 y8) 
(and (<= y8 1.5) 
(and (<= x8 (- 1.4715890915 0.7140932051)) 
(and (>= x8 0) 
(and (<= c 1.4715890915) 
(and (or (<= (+ x0 0.0447637922) x1) (or (<= (+ x1 0.2496321269) x0) (or (>= (- y0 0.9887240373) y1) (or (>= (- y1 0.6357093527) y0))))) 
(and (or (<= (+ x0 0.0447637922) x2) (or (<= (+ x2 0.725887778) x0) (or (>= (- y0 0.9887240373) y2) (or (>= (- y2 0.6333781868) y0))))) 
(and (or (<= (+ x0 0.0447637922) x3) (or (<= (+ x3 0.282655493) x0) (or (>= (- y0 0.9887240373) y3) (or (>= (- y3 0.4147033399) y0))))) 
(and (or (<= (+ x0 0.0447637922) x4) (or (<= (+ x4 0.433259971) x0) (or (>= (- y0 0.9887240373) y4) (or (>= (- y4 0.252610903) y0))))) 
(and (or (<= (+ x0 0.0447637922) x5) (or (<= (+ x5 0.4513053944) x0) (or (>= (- y0 0.9887240373) y5) (or (>= (- y5 0.2494590496) y0))))) 
(and (or (<= (+ x0 0.0447637922) x6) (or (<= (+ x6 0.2526932706) x0) (or (>= (- y0 0.9887240373) y6) (or (>= (- y6 0.134954876) y0))))) 
(and (or (<= (+ x0 0.0447637922) x7) (or (<= (+ x7 0.2451016839) x0) (or (>= (- y0 0.9887240373) y7) (or (>= (- y7 0.0708005443) y0))))) 
(and (or (<= (+ x0 0.0447637922) x8) (or (<= (+ x8 0.7140932051) x0) (or (>= (- y0 0.9887240373) y8) (or (>= (- y8 0.0344275366) y0))))) 
(and (or (<= (+ x1 0.2496321269) x2) (or (<= (+ x2 0.725887778) x1) (or (>= (- y1 0.6357093527) y2) (or (>= (- y2 0.6333781868) y1))))) 
(and (or (<= (+ x1 0.2496321269) x3) (or (<= (+ x3 0.282655493) x1) (or (>= (- y1 0.6357093527) y3) (or (>= (- y3 0.4147033399) y1))))) 
(and (or (<= (+ x1 0.2496321269) x4) (or (<= (+ x4 0.433259971) x1) (or (>= (- y1 0.6357093527) y4) (or (>= (- y4 0.252610903) y1))))) 
(and (or (<= (+ x1 0.2496321269) x5) (or (<= (+ x5 0.4513053944) x1) (or (>= (- y1 0.6357093527) y5) (or (>= (- y5 0.2494590496) y1))))) 
(and (or (<= (+ x1 0.2496321269) x6) (or (<= (+ x6 0.2526932706) x1) (or (>= (- y1 0.6357093527) y6) (or (>= (- y6 0.134954876) y1))))) 
(and (or (<= (+ x1 0.2496321269) x7) (or (<= (+ x7 0.2451016839) x1) (or (>= (- y1 0.6357093527) y7) (or (>= (- y7 0.0708005443) y1))))) 
(and (or (<= (+ x1 0.2496321269) x8) (or (<= (+ x8 0.7140932051) x1) (or (>= (- y1 0.6357093527) y8) (or (>= (- y8 0.0344275366) y1))))) 
(and (or (<= (+ x2 0.725887778) x3) (or (<= (+ x3 0.282655493) x2) (or (>= (- y2 0.6333781868) y3) (or (>= (- y3 0.4147033399) y2))))) 
(and (or (<= (+ x2 0.725887778) x4) (or (<= (+ x4 0.433259971) x2) (or (>= (- y2 0.6333781868) y4) (or (>= (- y4 0.252610903) y2))))) 
(and (or (<= (+ x2 0.725887778) x5) (or (<= (+ x5 0.4513053944) x2) (or (>= (- y2 0.6333781868) y5) (or (>= (- y5 0.2494590496) y2))))) 
(and (or (<= (+ x2 0.725887778) x6) (or (<= (+ x6 0.2526932706) x2) (or (>= (- y2 0.6333781868) y6) (or (>= (- y6 0.134954876) y2))))) 
(and (or (<= (+ x2 0.725887778) x7) (or (<= (+ x7 0.2451016839) x2) (or (>= (- y2 0.6333781868) y7) (or (>= (- y7 0.0708005443) y2))))) 
(and (or (<= (+ x2 0.725887778) x8) (or (<= (+ x8 0.7140932051) x2) (or (>= (- y2 0.6333781868) y8) (or (>= (- y8 0.0344275366) y2))))) 
(and (or (<= (+ x3 0.282655493) x4) (or (<= (+ x4 0.433259971) x3) (or (>= (- y3 0.4147033399) y4) (or (>= (- y4 0.252610903) y3))))) 
(and (or (<= (+ x3 0.282655493) x5) (or (<= (+ x5 0.4513053944) x3) (or (>= (- y3 0.4147033399) y5) (or (>= (- y5 0.2494590496) y3))))) 
(and (or (<= (+ x3 0.282655493) x6) (or (<= (+ x6 0.2526932706) x3) (or (>= (- y3 0.4147033399) y6) (or (>= (- y6 0.134954876) y3))))) 
(and (or (<= (+ x3 0.282655493) x7) (or (<= (+ x7 0.2451016839) x3) (or (>= (- y3 0.4147033399) y7) (or (>= (- y7 0.0708005443) y3))))) 
(and (or (<= (+ x3 0.282655493) x8) (or (<= (+ x8 0.7140932051) x3) (or (>= (- y3 0.4147033399) y8) (or (>= (- y8 0.0344275366) y3))))) 
(and (or (<= (+ x4 0.433259971) x5) (or (<= (+ x5 0.4513053944) x4) (or (>= (- y4 0.252610903) y5) (or (>= (- y5 0.2494590496) y4))))) 
(and (or (<= (+ x4 0.433259971) x6) (or (<= (+ x6 0.2526932706) x4) (or (>= (- y4 0.252610903) y6) (or (>= (- y6 0.134954876) y4))))) 
(and (or (<= (+ x4 0.433259971) x7) (or (<= (+ x7 0.2451016839) x4) (or (>= (- y4 0.252610903) y7) (or (>= (- y7 0.0708005443) y4))))) 
(and (or (<= (+ x4 0.433259971) x8) (or (<= (+ x8 0.7140932051) x4) (or (>= (- y4 0.252610903) y8) (or (>= (- y8 0.0344275366) y4))))) 
(and (or (<= (+ x5 0.4513053944) x6) (or (<= (+ x6 0.2526932706) x5) (or (>= (- y5 0.2494590496) y6) (or (>= (- y6 0.134954876) y5))))) 
(and (or (<= (+ x5 0.4513053944) x7) (or (<= (+ x7 0.2451016839) x5) (or (>= (- y5 0.2494590496) y7) (or (>= (- y7 0.0708005443) y5))))) 
(and (or (<= (+ x5 0.4513053944) x8) (or (<= (+ x8 0.7140932051) x5) (or (>= (- y5 0.2494590496) y8) (or (>= (- y8 0.0344275366) y5))))) 
(and (or (<= (+ x6 0.2526932706) x7) (or (<= (+ x7 0.2451016839) x6) (or (>= (- y6 0.134954876) y7) (or (>= (- y7 0.0708005443) y6))))) 
(and (or (<= (+ x6 0.2526932706) x8) (or (<= (+ x8 0.7140932051) x6) (or (>= (- y6 0.134954876) y8) (or (>= (- y8 0.0344275366) y6))))) 
(and (or (<= (+ x7 0.2451016839) x8) (or (<= (+ x8 0.7140932051) x7) (or (>= (- y7 0.0708005443) y8) (or (>= (- y8 0.0344275366) y7))))) ))))))))))))))))))))))))))))))))))))))))))))))))))))))))))))))))))))))))))))))))))))))))))))))))))))))))
(minimize c)
(check-sat)
(get-objectives)
(exit)
